% Dimensiones
filas = 6;
columnas = 5;

%Pistas
tipo_celda = array2d(1..filas, 1..columnas, [
    NEGRA,   SUMA_V,   SUMA_V,  SUMA_V,   NEGRA,
    SUMA_H,  BLANCA,   BLANCA,  BLANCA,   NEGRA,
    SUMA_H,  BLANCA,   BLANCA,  BLANCA,   NEGRA,
    SUMA_H,  BLANCA,   BLANCA,  SUMA_V,   SUMA_V,
    NEGRA,   SUMA_H,   BLANCA,  BLANCA,   BLANCA,
    NEGRA,   SUMA_H,   BLANCA,  BLANCA,   BLANCA
]);
%Pistas  horizontales
pistas_h = array2d(1..filas, 1..columnas, [
     0,   0,   0,   0,   0,   
     9,   0,   0,   0,   0,  
    13,   0,   0,   0,   0,  
    13,   0,   0,   0,   0,  
     0,   7,   0,   0,   0,  
     0,  19,   0,   0,   0  
]);

%Pistas verticales
pistas_v = array2d(1..filas, 1..columnas, [
     0,   9,  34,   4,   0,   
     0,   0,   0,   0,   0,  
     0,   0,   0,   0,   0,  
     0,   0,   0,  11,   3,  
     0,   0,   0,   0,   0,  
     0,   0,   0,   0,   0  
]);